NAME: test62
TYPE: TSP
DIMENSION: 15
EDGE_WEIGHT_TYPE: EUC_2D
NODE_COORD_SECTION
1 78.42040196686669 20.786193252209838
2 14.81514976929188 90.73499016854582
3 12.261962645938073 35.43174624622466
4 84.57687756422575 38.98610681353779
5 93.90873560710912 30.77238483229182
6 44.9692472794208 58.287345078897744
7 14.9052211358637 87.43354108247044
8 54.82736556133341 15.035271234713454
9 15.204124063509061 71.56800980767044
10 30.575429033978185 76.37788066566561
11 93.32301520984586 73.82297113271197
12 6.84771856392139 16.187896167807715
13 4.883691530613099 56.59076574861987
14 11.047737513089295 59.1729953888377
15 46.25984121188533 5.13546998452582
EOF
